15 61 31 46 4 30 







































































































32 50 42 11 38 3 56 
19 63 39 52 2 10 18 64 
26 0 69 53 23 67 73 
70 16 24 55 59 8 37 6 
62 47 75 40 71 5 22 49 
25 7 21 54 68 35 60 
34 9 13 65 29 28 1 33 
74 48 58 41 14 57 17 
51 76 12 43 72 27 44 66 
20 36 45 

